gurobi/temp.lp
Maximize
54.0 x0 +58.0 x1 +62.0 x2 +98.0 x3 +134.0 x4 +170.0 x5 +206.0 x6 +242.0 x7 +278.0 x8 
Subject To
54.0 x0 +58.0 x1 +62.0 x2 +44.0 x3 +26.0 x4 +8.0 x5 -10.0 x6 -28.0 x7 -46.0 x8  <= 17
54.0 x0 +58.0 x1 +62.0 x2 +44.0 x3 +26.0 x4 +8.0 x5 -10.0 x6 -28.0 x7 -46.0 x8  >= -1
54.0 x0 +58.0 x1 +62.0 x2 +44.0 x3 +26.0 x4 +8.0 x5 -10.0 x6 -28.0 x7 -46.0 x8  <= 17
54.0 x0 +58.0 x1 +62.0 x2 +44.0 x3 +26.0 x4 +8.0 x5 -10.0 x6 -28.0 x7 -46.0 x8  >= -1
-18.0 x0 -14.0 x1 -10.0 x2 -10.0 x3 -10.0 x4 -10.0 x5 -10.0 x6 -10.0 x7 -10.0 x8  <= 17
-18.0 x0 -14.0 x1 -10.0 x2 -10.0 x3 -10.0 x4 -10.0 x5 -10.0 x6 -10.0 x7 -10.0 x8  >= -1
0.0 x0 -0.5 x1 -1.0 x2 -5.5 x3 +3.5 x4 -1.0 x5 -5.5 x6 -10.0 x7 -1.0 x8  <= 17
0.0 x0 -0.5 x1 -1.0 x2 -5.5 x3 +3.5 x4 -1.0 x5 -5.5 x6 -10.0 x7 -1.0 x8  >= -1
0.0 x0 -0.5 x1 -1.0 x2 -5.5 x3 +3.5 x4 -1.0 x5 -5.5 x6 -10.0 x7 -1.0 x8  <= 17
0.0 x0 -0.5 x1 -1.0 x2 -5.5 x3 +3.5 x4 -1.0 x5 -5.5 x6 -10.0 x7 -1.0 x8  >= -1
0.0 x0 -0.5 x1 -1.0 x2 -5.5 x3 -10.0 x4 -1.0 x5 -5.5 x6 +3.5 x7 -1.0 x8  <= 17
0.0 x0 -0.5 x1 -1.0 x2 -5.5 x3 -10.0 x4 -1.0 x5 -5.5 x6 +3.5 x7 -1.0 x8  >= -1
0.0 x0 -0.5 x1 -1.0 x2 -5.5 x3 -10.0 x4 -1.0 x5 -5.5 x6 +3.5 x7 -1.0 x8  <= 17
0.0 x0 -0.5 x1 -1.0 x2 -5.5 x3 -10.0 x4 -1.0 x5 -5.5 x6 +3.5 x7 -1.0 x8  >= -1
0.0 x0 -0.5 x1 -1.0 x2 +8.0 x3 +3.5 x4 -1.0 x5 +8.0 x6 +3.5 x7 -1.0 x8  <= 17
0.0 x0 -0.5 x1 -1.0 x2 +8.0 x3 +3.5 x4 -1.0 x5 +8.0 x6 +3.5 x7 -1.0 x8  >= -1
0.0 x0 -0.5 x1 -1.0 x2 +8.0 x3 +3.5 x4 -1.0 x5 +8.0 x6 +3.5 x7 -1.0 x8  <= 17
0.0 x0 -0.5 x1 -1.0 x2 +8.0 x3 +3.5 x4 -1.0 x5 +8.0 x6 +3.5 x7 -1.0 x8  >= -1
9.0 x0 +7.0 x1 +5.0 x2 +5.0 x3 +5.0 x4 +5.0 x5 +5.0 x6 +5.0 x7 +5.0 x8  <= 17
9.0 x0 +7.0 x1 +5.0 x2 +5.0 x3 +5.0 x4 +5.0 x5 +5.0 x6 +5.0 x7 +5.0 x8  >= -1
-9.0 x0 -11.0 x1 -13.0 x2 -13.0 x3 -13.0 x4 -13.0 x5 -13.0 x6 -13.0 x7 -13.0 x8  <= 17
-9.0 x0 -11.0 x1 -13.0 x2 -13.0 x3 -13.0 x4 -13.0 x5 -13.0 x6 -13.0 x7 -13.0 x8  >= -1
0.0 x0 +1.0 x1 +2.0 x2 +2.0 x3 +2.0 x4 +2.0 x5 +2.0 x6 +2.0 x7 +2.0 x8  <= 17
0.0 x0 +1.0 x1 +2.0 x2 +2.0 x3 +2.0 x4 +2.0 x5 +2.0 x6 +2.0 x7 +2.0 x8  >= -1
x5 - x6 = 0
x7 - x10 = 0
x8 - x12 = 0
x9 - x11 = 0
End
