gurobi/temp.sol
# Objective value = 17
x0 2.0833333333333332e-02
x1 0
x2 0
x3 0
x4 0
x5 0
x6 0
x7 4.1666666666666678e-02
x8 2.0833333333333325e-02
x10 4.1666666666666678e-02
x12 2.0833333333333325e-02
x9 0
x11 0
